Version identifier: 22.1.0.0 | 2022-03-09 | 1a383f8ce
CPXPARAM_Read_DataCheck                          1
CPXPARAM_Threads                                 1
CPXPARAM_TimeLimit                               3600
Tried aggregator 2 times.
MIP Presolve eliminated 399 rows and 25 columns.
MIP Presolve modified 3515 coefficients.
Aggregator did 36 substitutions.
Reduced MIP has 995 rows, 179 columns, and 6462 nonzeros.
Reduced MIP has 126 binaries, 0 generals, 0 SOSs, and 0 indicators.
Presolve time = 0.01 sec. (10.34 ticks)
Probing fixed 0 vars, tightened 2 bounds.
Probing time = 0.00 sec. (1.14 ticks)
Tried aggregator 1 time.
Detecting symmetries...
MIP Presolve eliminated 1 rows and 0 columns.
MIP Presolve modified 22 coefficients.
Reduced MIP has 994 rows, 179 columns, and 6459 nonzeros.
Reduced MIP has 126 binaries, 0 generals, 0 SOSs, and 0 indicators.
Presolve time = 0.01 sec. (3.12 ticks)
Probing time = 0.00 sec. (1.08 ticks)
Clique table members: 82.
MIP emphasis: balance optimality and feasibility.
MIP search method: dynamic search.
Parallel mode: none, using 1 thread.
Root relaxation solution time = 0.00 sec. (3.25 ticks)

        Nodes                                         Cuts/
   Node  Left     Objective  IInf  Best Integer    Best Bound    ItCnt     Gap

      0     0       49.4626    43                     49.4626       96         
      0     0       49.4626    24                    Cuts: 23      159         
      0     0       49.4644    30                   Cuts: 118      307         
      0     0       49.5336    41                   Cuts: 137      400         
      0     0       49.7679    59                   Cuts: 138      486         
      0     0       49.9400    61                   Cuts: 139      564         
Detecting symmetries...
      0     0       49.9476    64                    Cuts: 90      625         
      0     0       49.9632    60                    Cuts: 67      660         
      0     0       49.9998    64                    Cuts: 85      723         
      0     0       50.0287    68                   Cuts: 103      783         
      0     0       50.0379    66                    Cuts: 71      812         
      0     0       50.0403    67                    Cuts: 84      853         
      0     0       50.0644    42                    Cuts: 14      874         
      0     0       50.0751    49                   Cuts: 110      913         
      0     0       50.0968    57                   Cuts: 108      950         
      0     0       50.0982    54                    Cuts: 89      983         
*     0+    0                           63.0614       50.0982            20.56%
Detecting symmetries...
      0     2       50.0982    44       63.0614       50.1014      983   20.55%
Elapsed time = 0.53 sec. (349.42 ticks, tree = 0.01 MB, solutions = 1)
    221   115       54.2613    25       63.0614       52.5601     6366   16.65%
*   258   139      integral     0       62.8636       52.5826     8045   16.35%
*   360+  180                           62.0076       52.6380            15.11%
*   369   182      integral     0       61.9381       52.6380    11019   15.02%
    422   206       52.9124    30       61.9381       52.9124    13054   14.57%
    526   253       54.4583    21       61.9381       53.0536    17687   14.34%
    625   279       55.4727    25       61.9381       53.1764    23001   14.15%
    789   341       53.7440    23       61.9381       53.5684    28409   13.51%
    923   364        cutoff             61.9381       54.2066    33643   12.48%
   1057   399        cutoff             61.9381       54.7406    38716   11.62%
   1186   406       58.3187    19       61.9381       55.2014    43866   10.88%
   1735   410       58.3981    14       61.9381       57.1066    61822    7.80%
Elapsed time = 3.81 sec. (3327.27 ticks, tree = 0.19 MB, solutions = 4)
   2346   350        cutoff             61.9381       58.7150    79356    5.20%

GUB cover cuts applied:  5
Cover cuts applied:  408
Implied bound cuts applied:  57
Flow cuts applied:  1
Mixed integer rounding cuts applied:  60

Root node processing (before b&c):
  Real time             =    0.54 sec. (349.43 ticks)
Sequential b&c:
  Real time             =    5.32 sec. (4813.64 ticks)
                          ------------
Total (root+branch&cut) =    5.85 sec. (5163.07 ticks)
